File : Instances/p71
Use 144 s

25679

0 0 1 0 1 0 0 0 0 0 0 0 1 1 0 0 1 1 1 1 1 0 0 1 1 1 0 0 1 0 
18 19 2 24 2 12 16 28 18 28 4 28 13 13 28 18 13 20 16 24 18 16 23 24 23 18 24 19 4 2 19 19 4 16 18 12 20 20 24 16 18 20 12 4 13 19 13 2 19 17 24 16 2 16 20 12 25 20 18 25 4 2 25 20 13 12 23 17 28 25 18 12 19 20 23 23 20 23 20 16 23 17 20 25 4 13 19 2 24 25 28 19 25 25 2 13 28 12 17 28 28 16 25 18 4 24 4 24 16 13 19 4 18 12 12 20 28 25 17 20 19 25 17 19 4 16 2 12 19 17 28 24 25 20 23 20 13 13 28 17 12 18 12 25 25 2 24 16 18 25 24 17 23 17 20 28 2 16 13 13 13 24 13 24 23 18 23 4 13 2 23 20 19 17 4 2 24 20 4 20 2 16 2 19 12 20 28 23 17 2 2 16 19 4 25 12 25 2 20 19 
